
  32    4
  10   10   10   10

   0   0   0   0   0  11 2 3 4 5 6 8 12 28 29 30 31 
   6   1   1   1   0   7 27 20 19 17 16 15 7 
   8   0   4   4   1   7 24 23 21 19 18 14 10 
   8   0   2   5   5   7 26 25 22 18 15 13 11 
   5   3   2   0   5   5 24 23 22 16 14 
   7   3   3   0   3   4 19 18 17 9 
   9   8   0   5   8   3 21 14 13 
   8   0   5   5   4   3 17 15 13 
   7   1   4   7   0   1 13 
   2   0   3   5   3   1 13 
  10   2   6   4   0   1 20 
   6   4   0   2   3   1 16 
   6   5   7   5   0   1 32
   6   0   4   3   3   1 32
   4   4   0   3   3   1 32
  10   0   3   4   7   1 32
   7   4   5   5   0   1 32
   1   4   0   6   5   1 32
   1   7   4   0   3   1 32
  10   5   0   3   2   1 32
  10   0   5   5   7   1 32
   8   4   0   3   3   1 32
   6   0   4   5   5   1 32
   4   5   3   0   6   1 32
  10   4   3   0   5   1 32
   6   6   6   3   0   1 32
   1   3   0   2   2   1 32
   1   4   0   3   3   1 32
  10   2   0   4   2   1 32
   2   5   0   3   4   1 32
  10   4   6   5   0   1 32
   0   0   0   0   0   0 
